244 5
10 10 10 10 10 

0 0 0 0 0 0 3 2 14 26 
0 0 0 0 0 0 4 3 6 8 169 
8 0 0 2 0 0 2 7 4 
3 0 0 10 0 0 1 5 
3 0 0 10 0 0 3 12 11 9 
7 0 0 7 0 0 1 7 
10 0 0 8 0 0 2 11 9 
7 0 0 6 0 0 1 9 
10 0 0 7 0 0 1 10 
6 0 0 7 0 0 1 13 
9 0 0 8 0 0 1 13 
5 0 0 10 0 0 1 13 
0 0 0 0 0 0 1 38 
0 0 0 0 0 0 2 15 18 
10 0 0 3 0 0 1 16 
2 0 0 10 0 0 2 24 17 
1 0 0 9 0 0 3 23 21 19 
10 0 0 10 0 0 3 23 22 20 
1 0 0 3 0 0 1 22 
10 0 0 5 0 0 2 21 156 
8 0 0 8 0 0 1 25 
8 0 0 9 0 0 1 25 
6 0 0 10 0 0 1 25 
6 0 0 8 0 0 1 25 
0 0 0 0 0 0 1 38 
0 0 0 0 0 0 4 27 28 30 183 
10 0 6 0 0 0 2 31 29 
10 0 8 0 0 0 3 36 35 33 
1 0 10 0 0 0 2 35 32 
5 0 10 0 0 0 1 31 
10 0 10 0 0 0 1 33 
2 0 3 0 0 0 1 33 
9 0 7 0 0 0 1 34 
1 0 4 0 0 0 1 37 
1 0 7 0 0 0 1 37 
3 0 10 0 0 0 1 37 
0 0 0 0 0 0 1 38 
0 0 0 0 0 0 3 39 51 63 
0 0 0 0 0 0 3 40 44 46 
8 0 0 2 0 0 2 43 41 
4 0 0 7 0 0 2 49 42 
1 0 0 7 0 0 2 47 45 
7 0 0 8 0 0 2 49 47 
8 0 0 6 0 0 2 48 47 
3 0 0 10 0 0 1 48 
3 0 0 10 0 0 2 47 92 
9 0 0 9 0 0 1 50 
3 0 0 6 0 0 1 50 
4 0 0 10 0 0 1 50 
0 0 0 0 0 0 1 75 
0 0 0 0 0 0 2 52 56 
6 0 0 0 0 1 3 55 54 53 
1 0 0 0 0 7 2 58 57 
3 0 0 0 0 10 2 59 58 
6 0 0 0 0 7 2 59 58 
6 0 0 0 0 9 2 59 58 
8 0 0 0 0 8 2 61 59 
1 0 0 0 0 7 3 61 60 135 
2 0 0 0 0 9 1 60 
8 0 0 0 0 10 1 62 
10 0 0 0 0 7 1 62 
0 0 0 0 0 0 1 75 
0 0 0 0 0 0 5 64 66 68 70 73 
2 0 0 1 0 0 2 72 65 
9 0 0 10 0 0 1 67 
3 0 0 7 0 0 1 67 
8 0 0 9 0 0 1 69 
7 0 0 7 0 0 1 69 
6 0 0 10 0 0 2 71 96 
7 0 0 9 0 0 1 72 
10 0 0 8 0 0 1 74 
4 0 0 5 0 0 1 74 
7 0 0 9 0 0 1 74 
0 0 0 0 0 0 1 75 
0 0 0 0 0 0 3 76 88 120 
0 0 0 0 0 0 5 77 79 81 82 86 
6 0 5 0 0 0 2 85 78 
7 0 6 0 0 0 1 80 
4 0 5 0 0 0 2 85 84 
10 0 8 0 0 0 1 83 
2 0 7 0 0 0 1 83 
2 0 9 0 0 0 2 83 167 
3 0 8 0 0 0 1 84 
10 0 10 0 0 0 1 87 
8 0 10 0 0 0 1 87 
8 0 7 0 0 0 1 87 
0 0 0 0 0 0 3 152 164 186 
0 0 0 0 0 0 3 89 90 118 
10 0 1 0 4 1 2 117 91 
1 0 9 0 10 8 3 117 99 92 
8 0 6 0 10 6 2 99 92 
4 0 5 0 10 7 1 93 
9 0 6 0 10 6 3 116 115 94 
6 0 8 0 7 10 1 95 
4 0 7 0 5 8 2 114 96 
2 0 7 0 7 5 2 113 97 
1 0 10 0 7 5 2 112 98 
4 0 8 0 7 10 1 100 
2 0 7 0 8 10 3 111 103 102 
4 0 8 0 10 8 2 111 101 
3 0 6 0 10 10 1 102 
3 0 7 0 9 10 3 110 106 104 
10 0 10 0 4 8 3 110 106 104 
7 0 9 0 7 5 3 109 107 105 
1 0 10 0 7 10 1 108 
7 0 6 0 8 3 1 107 
6 0 9 0 5 10 1 119 
5 0 8 0 4 10 1 119 
10 0 8 0 4 9 1 119 
7 0 5 0 7 3 1 119 
4 0 10 0 6 7 1 119 
3 0 8 0 10 8 1 119 
6 0 8 0 10 8 1 119 
3 0 10 0 8 6 1 119 
1 0 10 0 9 5 1 119 
6 0 7 0 8 10 1 119 
3 0 7 0 8 9 1 119 
1 0 5 0 6 10 1 119 
0 0 0 0 0 0 1 244 
0 0 0 0 0 0 3 121 122 131 
6 3 5 0 4 0 2 134 123 
1 8 3 0 7 0 2 134 123 
7 10 6 0 8 0 2 127 124 
4 10 7 0 7 0 2 130 125 
8 8 1 0 10 0 2 139 126 
10 10 6 0 10 0 2 138 128 
3 5 7 0 7 0 2 130 129 
6 10 10 0 5 0 1 129 
7 9 9 0 6 0 3 145 137 132 
1 10 9 0 9 0 3 145 137 132 
9 8 7 0 7 0 3 139 137 133 
1 7 10 0 9 0 1 133 
5 6 6 0 6 0 2 142 135 
2 9 9 0 10 0 2 139 136 
7 4 8 0 6 0 1 136 
2 10 7 0 10 0 2 150 140 
1 9 7 0 10 0 2 150 140 
1 6 10 0 10 0 2 150 140 
8 10 5 0 9 0 1 140 
10 4 7 0 7 0 2 144 141 
4 6 7 0 10 0 4 149 148 147 143 
7 9 10 0 9 0 1 143 
9 8 7 0 4 0 1 146 
1 5 10 0 8 0 1 147 
1 10 10 0 5 0 1 150 
4 5 6 0 3 0 1 151 
8 4 10 0 7 0 1 151 
4 5 7 0 6 0 1 151 
6 8 9 0 7 0 1 151 
9 9 10 0 9 0 1 151 
0 0 0 0 0 0 1 244 
0 0 0 0 0 0 3 153 154 156 
10 4 0 0 0 0 3 162 159 157 
3 6 0 0 0 0 2 159 155 
5 7 0 0 0 0 1 157 
8 3 0 0 0 0 2 162 160 
8 10 0 0 0 0 1 158 
4 9 0 0 0 0 1 160 
7 10 0 0 0 0 1 161 
10 6 0 0 0 0 1 163 
6 10 0 0 0 0 1 163 
1 10 0 0 0 0 1 163 
0 0 0 0 0 0 3 208 220 232 
0 0 0 0 0 0 5 165 174 182 183 184 
8 4 7 0 0 0 1 166 
2 7 3 0 0 0 3 181 180 167 
7 8 10 0 0 0 4 179 178 176 168 
10 7 8 0 0 0 2 177 169 
7 8 6 0 0 0 1 170 
4 8 8 0 0 0 1 171 
10 8 8 0 0 0 1 172 
2 10 10 0 0 0 1 173 
7 10 10 0 0 0 1 175 
7 9 7 0 0 0 1 176 
7 5 6 0 0 0 1 185 
2 7 6 0 0 0 1 185 
4 5 7 0 0 0 1 185 
4 6 5 0 0 0 1 185 
4 10 9 0 0 0 1 185 
4 4 10 0 0 0 1 185 
4 10 5 0 0 0 1 185 
6 6 5 0 0 0 1 185 
7 9 10 0 0 0 1 185 
2 9 10 0 0 0 1 185 
0 0 0 0 0 0 1 244 
0 0 0 0 0 0 2 187 189 
5 0 5 4 0 0 2 193 188 
9 0 9 5 0 0 1 190 
4 0 6 7 0 0 1 190 
3 0 9 8 0 0 2 192 191 
9 0 9 5 0 0 3 197 195 194 
9 0 10 7 0 0 3 199 198 197 
6 0 7 7 0 0 3 199 196 195 
1 0 7 7 0 0 3 206 198 196 
8 0 5 10 0 0 3 205 204 201 
4 0 9 10 0 0 2 204 200 
2 0 10 7 0 0 2 204 200 
5 0 10 9 0 0 3 205 204 203 
4 0 5 10 0 0 3 206 204 203 
5 0 7 6 0 0 1 201 
3 0 4 10 0 0 1 202 
1 0 10 9 0 0 1 203 
4 0 8 6 0 0 1 207 
9 0 7 6 0 0 1 207 
10 0 3 7 0 0 1 207 
1 0 10 10 0 0 1 207 
0 0 0 0 0 0 1 244 
0 0 0 0 0 0 3 209 213 214 
10 0 2 0 0 0 1 210 
10 0 6 0 0 0 3 218 215 211 
3 0 10 0 0 0 2 217 212 
2 0 10 0 0 0 1 216 
7 0 9 0 0 0 1 215 
10 0 10 0 0 0 1 215 
2 0 7 0 0 0 1 219 
5 0 10 0 0 0 1 219 
5 0 5 0 0 0 1 219 
7 0 6 0 0 0 1 219 
0 0 0 0 0 0 1 244 
0 0 0 0 0 0 2 221 222 
4 0 5 0 0 0 1 223 
8 0 6 0 0 0 1 223 
4 0 8 0 0 0 1 224 
3 0 9 0 0 0 3 227 226 225 
4 0 9 0 0 0 3 230 229 228 
2 0 10 0 0 0 3 230 229 228 
7 0 9 0 0 0 3 230 229 228 
4 0 10 0 0 0 1 231 
10 0 5 0 0 0 1 231 
4 0 4 0 0 0 1 231 
0 0 0 0 0 0 1 244 
0 0 0 0 0 0 2 233 234 
2 0 0 0 1 0 2 237 235 
3 0 0 0 8 0 2 236 235 
9 0 0 0 7 0 2 239 238 
5 0 0 0 7 0 2 239 238 
9 0 0 0 6 0 2 240 239 
1 0 0 0 10 0 2 242 240 
5 0 0 0 9 0 2 242 241 
5 0 0 0 10 0 1 241 
10 0 0 0 8 0 1 243 
1 0 0 0 9 0 1 243 
0 0 0 0 0 0 1 244 
0 0 0 0 0 0 0 
